100
128
16
5
15
44
7
48
14
4
42
41
53
8
3
51
2
42
22
26
7
38
17
12
44
14
1
37
29
51
4
14
32
16
12
4
24
6
32
14
1
1
34
11
24
4
21
3
30
46
34
1
33
53
46
54
37
1
42
49
45
47
53
48
22
42
8
2
48
40
2
6
54
52
5
1
1
18
48
53
5
54
53
20
25
5
43
30
4
2
37
36
37
42
5
64
3
3
36
63
12
1